p tw 1180 17701 7 
1 8 
1 311 
2 9 
2 10 
2 312 
3 7 
3 10 
3 861 
4 8 
4 9 
4 862 
5 7 
5 9 
5 1161 
6 8 
6 10 
6 1162 
11 17 
11 18 
11 131 
12 19 
12 20 
12 132 
13 17 
13 20 
13 581 
14 18 
14 19 
14 582 
15 17 
15 19 
15 1091 
16 18 
16 20 
16 1092 
21 27 
21 28 
21 381 
22 29 
22 30 
22 382 
23 27 
23 30 
23 461 
24 28 
24 29 
24 462 
25 27 
25 29 
25 871 
26 28 
26 30 
26 872 
31 37 
31 38 
31 201 
32 39 
32 40 
32 202 
33 37 
33 40 
33 331 
34 38 
34 39 
34 332 
35 37 
35 39 
35 1163 
36 38 
36 40 
36 1164 
41 47 
41 48 
41 151 
42 49 
42 50 
42 152 
43 47 
43 50 
43 431 
44 48 
44 49 
44 432 
45 47 
45 49 
45 611 
46 48 
46 50 
46 612 
51 57 
51 58 
51 601 
52 59 
52 60 
52 602 
53 57 
53 60 
53 791 
54 58 
54 59 
54 792 
55 57 
55 59 
55 1021 
56 58 
56 60 
56 1022 
61 67 
61 68 
61 481 
62 69 
62 70 
62 482 
63 67 
63 70 
63 901 
64 68 
64 69 
64 902 
65 67 
65 69 
65 921 
66 68 
66 70 
66 922 
71 77 
71 78 
71 171 
72 79 
72 80 
72 172 
73 77 
73 80 
73 521 
74 78 
74 79 
74 522 
75 77 
75 79 
75 951 
76 78 
76 80 
76 952 
81 87 
81 88 
81 91 
82 89 
82 90 
82 92 
83 87 
83 90 
83 173 
84 88 
84 89 
84 174 
85 87 
85 89 
85 251 
86 88 
86 90 
86 252 
91 97 
91 98 
92 99 
92 100 
93 97 
93 100 
93 181 
94 98 
94 99 
94 182 
95 97 
95 99 
95 571 
96 98 
96 100 
96 572 
101 107 
101 108 
101 483 
102 109 
102 110 
102 484 
103 107 
103 110 
103 491 
104 108 
104 109 
104 492 
105 107 
105 109 
105 991 
106 108 
106 110 
106 992 
111 117 
111 118 
111 411 
112 119 
112 120 
112 412 
113 117 
113 120 
113 493 
114 118 
114 119 
114 494 
115 117 
115 119 
115 781 
116 118 
116 120 
116 782 
121 127 
121 128 
121 203 
122 129 
122 130 
122 204 
123 127 
123 130 
123 1023 
124 128 
124 129 
124 1024 
125 127 
125 129 
125 1051 
126 128 
126 130 
126 1052 
131 137 
131 138 
132 139 
132 140 
133 137 
133 140 
133 183 
134 138 
134 139 
134 184 
135 137 
135 139 
135 761 
136 138 
136 140 
136 762 
141 147 
141 148 
141 231 
142 149 
142 150 
142 232 
143 147 
143 150 
143 463 
144 148 
144 149 
144 464 
145 147 
145 149 
145 731 
146 148 
146 150 
146 732 
151 157 
151 158 
152 159 
152 160 
153 157 
153 160 
153 253 
154 158 
154 159 
154 254 
155 157 
155 159 
155 1001 
156 158 
156 160 
156 1002 
161 167 
161 168 
161 751 
162 169 
162 170 
162 752 
163 167 
163 170 
163 953 
164 168 
164 169 
164 954 
165 167 
165 169 
165 1041 
166 168 
166 170 
166 1042 
171 177 
171 178 
172 179 
172 180 
173 177 
173 180 
174 178 
174 179 
175 177 
175 179 
175 241 
176 178 
176 180 
176 242 
181 187 
181 188 
182 189 
182 190 
183 187 
183 190 
184 188 
184 189 
185 187 
185 189 
185 771 
186 188 
186 190 
186 772 
191 197 
191 198 
191 551 
192 199 
192 200 
192 552 
193 197 
193 200 
193 701 
194 198 
194 199 
194 702 
195 197 
195 199 
195 1111 
196 198 
196 200 
196 1112 
201 207 
201 208 
202 209 
202 210 
203 207 
203 210 
204 208 
204 209 
205 207 
205 209 
205 291 
206 208 
206 210 
206 292 
211 217 
211 218 
211 293 
212 219 
212 220 
212 294 
213 217 
213 220 
213 421 
214 218 
214 219 
214 422 
215 217 
215 219 
215 721 
216 218 
216 220 
216 722 
221 227 
221 228 
221 361 
222 229 
222 230 
222 362 
223 227 
223 230 
223 783 
224 228 
224 229 
224 784 
225 227 
225 229 
225 801 
226 228 
226 230 
226 802 
231 237 
231 238 
232 239 
232 240 
233 237 
233 240 
233 281 
234 238 
234 239 
234 282 
235 237 
235 239 
235 313 
236 238 
236 240 
236 314 
241 247 
241 248 
242 249 
242 250 
243 247 
243 250 
243 591 
244 248 
244 249 
244 592 
245 247 
245 249 
245 1121 
246 248 
246 250 
246 1122 
251 257 
251 258 
252 259 
252 260 
253 257 
253 260 
254 258 
254 259 
255 257 
255 259 
255 851 
256 258 
256 260 
256 852 
261 267 
261 268 
261 733 
262 269 
262 270 
262 734 
263 267 
263 270 
263 881 
264 268 
264 269 
264 882 
265 267 
265 269 
265 1053 
266 268 
266 270 
266 1054 
271 277 
271 278 
271 351 
272 279 
272 280 
272 352 
273 277 
273 280 
273 661 
274 278 
274 279 
274 662 
275 277 
275 279 
275 1011 
276 278 
276 280 
276 1012 
281 287 
281 288 
282 289 
282 290 
283 287 
283 290 
283 413 
284 288 
284 289 
284 414 
285 287 
285 289 
285 641 
286 288 
286 290 
286 642 
291 297 
291 298 
292 299 
292 300 
293 297 
293 300 
294 298 
294 299 
295 297 
295 299 
295 911 
296 298 
296 300 
296 912 
301 307 
301 308 
301 391 
302 309 
302 310 
302 392 
303 307 
303 310 
303 583 
304 308 
304 309 
304 584 
305 307 
305 309 
305 621 
306 308 
306 310 
306 622 
311 317 
311 318 
312 319 
312 320 
313 317 
313 320 
314 318 
314 319 
315 317 
315 319 
315 1043 
316 318 
316 320 
316 1044 
321 327 
321 328 
321 371 
322 329 
322 330 
322 372 
323 327 
323 330 
323 613 
324 328 
324 329 
324 614 
325 327 
325 329 
325 631 
326 328 
326 330 
326 632 
331 337 
331 338 
332 339 
332 340 
333 337 
333 340 
333 511 
334 338 
334 339 
334 512 
335 337 
335 339 
335 863 
336 338 
336 340 
336 864 
341 347 
341 348 
341 773 
342 349 
342 350 
342 774 
343 347 
343 350 
343 873 
344 348 
344 349 
344 874 
345 347 
345 349 
345 1071 
346 348 
346 350 
346 1072 
351 357 
351 358 
352 359 
352 360 
353 357 
353 360 
353 971 
354 358 
354 359 
354 972 
355 357 
355 359 
355 1141 
356 358 
356 360 
356 1142 
361 367 
361 368 
362 369 
362 370 
363 367 
363 370 
363 643 
364 368 
364 369 
364 644 
365 367 
365 369 
365 973 
366 368 
366 370 
366 974 
371 377 
371 378 
372 379 
372 380 
373 377 
373 380 
373 603 
374 378 
374 379 
374 604 
375 377 
375 379 
375 753 
376 378 
376 380 
376 754 
381 387 
381 388 
382 389 
382 390 
383 387 
383 390 
383 681 
384 388 
384 389 
384 682 
385 387 
385 389 
385 913 
386 388 
386 390 
386 914 
391 397 
391 398 
392 399 
392 400 
393 397 
393 400 
393 471 
394 398 
394 399 
394 472 
395 397 
395 399 
395 941 
396 398 
396 400 
396 942 
401 407 
401 408 
401 561 
402 409 
402 410 
402 562 
403 407 
403 410 
403 683 
404 408 
404 409 
404 684 
405 407 
405 409 
405 711 
406 408 
406 410 
406 712 
411 417 
411 418 
412 419 
412 420 
413 417 
413 420 
414 418 
414 419 
415 417 
415 419 
415 891 
416 418 
416 420 
416 892 
421 427 
421 428 
422 429 
422 430 
423 427 
423 430 
423 623 
424 428 
424 429 
424 624 
425 427 
425 429 
425 1031 
426 428 
426 430 
426 1032 
431 437 
431 438 
432 439 
432 440 
433 437 
433 440 
433 501 
434 438 
434 439 
434 502 
435 437 
435 439 
435 943 
436 438 
436 440 
436 944 
441 447 
441 448 
441 451 
442 449 
442 450 
442 452 
443 447 
443 450 
443 741 
444 448 
444 449 
444 742 
445 447 
445 449 
445 821 
446 448 
446 450 
446 822 
451 457 
451 458 
452 459 
452 460 
453 457 
453 460 
453 903 
454 458 
454 459 
454 904 
455 457 
455 459 
455 1013 
456 458 
456 460 
456 1014 
461 467 
461 468 
462 469 
462 470 
463 467 
463 470 
464 468 
464 469 
465 467 
465 469 
465 841 
466 468 
466 470 
466 842 
471 477 
471 478 
472 479 
472 480 
473 477 
473 480 
473 573 
474 478 
474 479 
474 574 
475 477 
475 479 
475 1045 
476 478 
476 480 
476 1046 
481 487 
481 488 
482 489 
482 490 
483 487 
483 490 
484 488 
484 489 
485 487 
485 489 
485 853 
486 488 
486 490 
486 854 
491 497 
491 498 
492 499 
492 500 
493 497 
493 500 
494 498 
494 499 
495 497 
495 499 
495 893 
496 498 
496 500 
496 894 
501 507 
501 508 
502 509 
502 510 
503 507 
503 510 
503 811 
504 508 
504 509 
504 812 
505 507 
505 509 
505 1101 
506 508 
506 510 
506 1102 
511 517 
511 518 
512 519 
512 520 
513 517 
513 520 
513 523 
514 518 
514 519 
514 524 
515 517 
515 519 
515 691 
516 518 
516 520 
516 692 
521 527 
521 528 
522 529 
522 530 
523 527 
523 530 
524 528 
524 529 
525 527 
525 529 
525 563 
526 528 
526 530 
526 564 
531 537 
531 538 
531 633 
532 539 
532 540 
532 634 
533 537 
533 540 
533 793 
534 538 
534 539 
534 794 
535 537 
535 539 
535 1055 
536 538 
536 540 
536 1056 
541 547 
541 548 
541 553 
542 549 
542 550 
542 554 
543 547 
543 550 
543 585 
544 548 
544 549 
544 586 
545 547 
545 549 
545 685 
546 548 
546 550 
546 686 
551 557 
551 558 
552 559 
552 560 
553 557 
553 560 
554 558 
554 559 
555 557 
555 559 
555 605 
556 558 
556 560 
556 606 
561 567 
561 568 
562 569 
562 570 
563 567 
563 570 
564 568 
564 569 
565 567 
565 569 
565 1073 
566 568 
566 570 
566 1074 
571 577 
571 578 
572 579 
572 580 
573 577 
573 580 
574 578 
574 579 
575 577 
575 579 
575 693 
576 578 
576 580 
576 694 
581 587 
581 588 
582 589 
582 590 
583 587 
583 590 
584 588 
584 589 
585 587 
585 589 
586 588 
586 590 
591 597 
591 598 
592 599 
592 600 
593 597 
593 600 
593 813 
594 598 
594 599 
594 814 
595 597 
595 599 
595 883 
596 598 
596 600 
596 884 
601 607 
601 608 
602 609 
602 610 
603 607 
603 610 
604 608 
604 609 
605 607 
605 609 
606 608 
606 610 
611 617 
611 618 
612 619 
612 620 
613 617 
613 620 
614 618 
614 619 
615 617 
615 619 
615 975 
616 618 
616 620 
616 976 
621 627 
621 628 
622 629 
622 630 
623 627 
623 630 
624 628 
624 629 
625 627 
625 629 
625 743 
626 628 
626 630 
626 744 
631 637 
631 638 
632 639 
632 640 
633 637 
633 640 
634 638 
634 639 
635 637 
635 639 
635 735 
636 638 
636 640 
636 736 
641 647 
641 648 
642 649 
642 650 
643 647 
643 650 
644 648 
644 649 
645 647 
645 649 
645 651 
646 648 
646 650 
646 652 
651 657 
651 658 
652 659 
652 660 
653 657 
653 660 
653 895 
654 658 
654 659 
654 896 
655 657 
655 659 
655 931 
656 658 
656 660 
656 932 
661 667 
661 668 
662 669 
662 670 
663 667 
663 670 
663 1061 
664 668 
664 669 
664 1062 
665 667 
665 669 
665 1143 
666 668 
666 670 
666 1144 
671 677 
671 678 
671 723 
672 679 
672 680 
672 724 
673 677 
673 680 
673 1063 
674 678 
674 679 
674 1064 
675 677 
675 679 
675 1113 
676 678 
676 680 
676 1114 
681 687 
681 688 
682 689 
682 690 
683 687 
683 690 
684 688 
684 689 
685 687 
685 689 
686 688 
686 690 
691 697 
691 698 
692 699 
692 700 
693 697 
693 700 
694 698 
694 699 
695 697 
695 699 
695 1003 
696 698 
696 700 
696 1004 
701 707 
701 708 
702 709 
702 710 
703 707 
703 710 
703 803 
704 708 
704 709 
704 804 
705 707 
705 709 
705 1033 
706 708 
706 710 
706 1034 
711 717 
711 718 
712 719 
712 720 
713 717 
713 720 
713 955 
714 718 
714 719 
714 956 
715 717 
715 719 
715 1171 
716 718 
716 720 
716 1172 
721 727 
721 728 
722 729 
722 730 
723 727 
723 730 
724 728 
724 729 
725 727 
725 729 
725 1093 
726 728 
726 730 
726 1094 
731 737 
731 738 
732 739 
732 740 
733 737 
733 740 
734 738 
734 739 
735 737 
735 739 
736 738 
736 740 
741 747 
741 748 
742 749 
742 750 
743 747 
743 750 
744 748 
744 749 
745 747 
745 749 
745 961 
746 748 
746 750 
746 962 
751 757 
751 758 
752 759 
752 760 
753 757 
753 760 
754 758 
754 759 
755 757 
755 759 
755 831 
756 758 
756 760 
756 832 
761 767 
761 768 
762 769 
762 770 
763 767 
763 770 
763 843 
764 768 
764 769 
764 844 
765 767 
765 769 
765 915 
766 768 
766 770 
766 916 
771 777 
771 778 
772 779 
772 780 
773 777 
773 780 
774 778 
774 779 
775 777 
775 779 
775 963 
776 778 
776 780 
776 964 
781 787 
781 788 
782 789 
782 790 
783 787 
783 790 
784 788 
784 789 
785 787 
785 789 
785 1151 
786 788 
786 790 
786 1152 
791 797 
791 798 
792 799 
792 800 
793 797 
793 800 
794 798 
794 799 
795 797 
795 799 
795 1005 
796 798 
796 800 
796 1006 
801 807 
801 808 
802 809 
802 810 
803 807 
803 810 
804 808 
804 809 
805 807 
805 809 
805 923 
806 808 
806 810 
806 924 
811 817 
811 818 
812 819 
812 820 
813 817 
813 820 
814 818 
814 819 
815 817 
815 819 
815 1145 
816 818 
816 820 
816 1146 
821 827 
821 828 
822 829 
822 830 
823 827 
823 830 
823 885 
824 828 
824 829 
824 886 
825 827 
825 829 
825 1131 
826 828 
826 830 
826 1132 
831 837 
831 838 
832 839 
832 840 
833 837 
833 840 
833 1081 
834 838 
834 839 
834 1082 
835 837 
835 839 
835 1165 
836 838 
836 840 
836 1166 
841 847 
841 848 
842 849 
842 850 
843 847 
843 850 
844 848 
844 849 
845 847 
845 849 
845 1123 
846 848 
846 850 
846 1124 
851 857 
851 858 
852 859 
852 860 
853 857 
853 860 
854 858 
854 859 
855 857 
855 859 
855 1103 
856 858 
856 860 
856 1104 
861 867 
861 868 
862 869 
862 870 
863 867 
863 870 
864 868 
864 869 
865 867 
865 869 
865 1065 
866 868 
866 870 
866 1066 
871 877 
871 878 
872 879 
872 880 
873 877 
873 880 
874 878 
874 879 
875 877 
875 879 
875 925 
876 878 
876 880 
876 926 
881 887 
881 888 
882 889 
882 890 
883 887 
883 890 
884 888 
884 889 
885 887 
885 889 
886 888 
886 890 
891 897 
891 898 
892 899 
892 900 
893 897 
893 900 
894 898 
894 899 
895 897 
895 899 
896 898 
896 900 
901 907 
901 908 
902 909 
902 910 
903 907 
903 910 
904 908 
904 909 
905 907 
905 909 
905 993 
906 908 
906 910 
906 994 
911 917 
911 918 
912 919 
912 920 
913 917 
913 920 
914 918 
914 919 
915 917 
915 919 
916 918 
916 920 
921 927 
921 928 
922 929 
922 930 
923 927 
923 930 
924 928 
924 929 
925 927 
925 929 
926 928 
926 930 
931 937 
931 938 
932 939 
932 940 
933 937 
933 940 
933 965 
934 938 
934 939 
934 966 
935 937 
935 939 
935 1133 
936 938 
936 940 
936 1134 
941 947 
941 948 
942 949 
942 950 
943 947 
943 950 
944 948 
944 949 
945 947 
945 949 
945 1153 
946 948 
946 950 
946 1154 
951 957 
951 958 
952 959 
952 960 
953 957 
953 960 
954 958 
954 959 
955 957 
955 959 
956 958 
956 960 
961 967 
961 968 
962 969 
962 970 
963 967 
963 970 
964 968 
964 969 
965 967 
965 969 
966 968 
966 970 
971 977 
971 978 
972 979 
972 980 
973 977 
973 980 
974 978 
974 979 
975 977 
975 979 
976 978 
976 980 
981 987 
981 988 
981 1083 
982 989 
982 990 
982 1084 
983 987 
983 990 
983 1125 
984 988 
984 989 
984 1126 
985 987 
985 989 
985 1173 
986 988 
986 990 
986 1174 
991 997 
991 998 
992 999 
992 1000 
993 997 
993 1000 
994 998 
994 999 
995 997 
995 999 
995 1175 
996 998 
996 1000 
996 1176 
1001 1007 
1001 1008 
1002 1009 
1002 1010 
1003 1007 
1003 1010 
1004 1008 
1004 1009 
1005 1007 
1005 1009 
1006 1008 
1006 1010 
1011 1017 
1011 1018 
1012 1019 
1012 1020 
1013 1017 
1013 1020 
1014 1018 
1014 1019 
1015 1017 
1015 1019 
1015 1115 
1016 1018 
1016 1020 
1016 1116 
1021 1027 
1021 1028 
1022 1029 
1022 1030 
1023 1027 
1023 1030 
1024 1028 
1024 1029 
1025 1027 
1025 1029 
1025 1075 
1026 1028 
1026 1030 
1026 1076 
1031 1037 
1031 1038 
1032 1039 
1032 1040 
1033 1037 
1033 1040 
1034 1038 
1034 1039 
1035 1037 
1035 1039 
1035 1095 
1036 1038 
1036 1040 
1036 1096 
1041 1047 
1041 1048 
1042 1049 
1042 1050 
1043 1047 
1043 1050 
1044 1048 
1044 1049 
1045 1047 
1045 1049 
1046 1048 
1046 1050 
1051 1057 
1051 1058 
1052 1059 
1052 1060 
1053 1057 
1053 1060 
1054 1058 
1054 1059 
1055 1057 
1055 1059 
1056 1058 
1056 1060 
1061 1067 
1061 1068 
1062 1069 
1062 1070 
1063 1067 
1063 1070 
1064 1068 
1064 1069 
1065 1067 
1065 1069 
1066 1068 
1066 1070 
1071 1077 
1071 1078 
1072 1079 
1072 1080 
1073 1077 
1073 1080 
1074 1078 
1074 1079 
1075 1077 
1075 1079 
1076 1078 
1076 1080 
1081 1087 
1081 1088 
1082 1089 
1082 1090 
1083 1087 
1083 1090 
1084 1088 
1084 1089 
1085 1087 
1085 1089 
1085 1105 
1086 1088 
1086 1090 
1086 1106 
1091 1097 
1091 1098 
1092 1099 
1092 1100 
1093 1097 
1093 1100 
1094 1098 
1094 1099 
1095 1097 
1095 1099 
1096 1098 
1096 1100 
1101 1107 
1101 1108 
1102 1109 
1102 1110 
1103 1107 
1103 1110 
1104 1108 
1104 1109 
1105 1107 
1105 1109 
1106 1108 
1106 1110 
1111 1117 
1111 1118 
1112 1119 
1112 1120 
1113 1117 
1113 1120 
1114 1118 
1114 1119 
1115 1117 
1115 1119 
1116 1118 
1116 1120 
1121 1127 
1121 1128 
1122 1129 
1122 1130 
1123 1127 
1123 1130 
1124 1128 
1124 1129 
1125 1127 
1125 1129 
1126 1128 
1126 1130 
1131 1137 
1131 1138 
1132 1139 
1132 1140 
1133 1137 
1133 1140 
1134 1138 
1134 1139 
1135 1137 
1135 1139 
1135 1155 
1136 1138 
1136 1140 
1136 1156 
1141 1147 
1141 1148 
1142 1149 
1142 1150 
1143 1147 
1143 1150 
1144 1148 
1144 1149 
1145 1147 
1145 1149 
1146 1148 
1146 1150 
1151 1157 
1151 1158 
1152 1159 
1152 1160 
1153 1157 
1153 1160 
1154 1158 
1154 1159 
1155 1157 
1155 1159 
1156 1158 
1156 1160 
1161 1167 
1161 1168 
1162 1169 
1162 1170 
1163 1167 
1163 1170 
1164 1168 
1164 1169 
1165 1167 
1165 1169 
1166 1168 
1166 1170 
1171 1177 
1171 1178 
1172 1179 
1172 1180 
1173 1177 
1173 1180 
1174 1178 
1174 1179 
1175 1177 
1175 1179 
1176 1178 
1176 1180 
